50 1 3
915 559 407 517 389 265 332 733 396 605 784 635 424 587 529 334 526 956 597 606 283 457 945 340 338 714 856 903 336 768 80 250 326 486 767 715 751 98 448 146 703 231 781 127 818 309 460 343 265 57 
949 547 513 894 886 851 608 742 754 943 509 833 193 835 319 959 550 69 57 997 215 759 228 996 885 45 304 345 388 568 401 336 115 914 230 1 765 837 742 518 780 251 351 972 85 669 931 634 738 987 
631 952 746 858 947 630 902 251 975 289 819 376 625 933 290 854 933 54 691 674 571 470 924 922 441 9 590 372 643 327 359 273 279 104 130 226 734 32 476 708 321 295 84 945 227 373 799 160 426 489 
8330 9970 9580 7570 9180 3990 7660 5080 7710 4080 8340 1290 6810 1120 2320 8100 3370 9650 8420 8130 6730 1620 1070 7560 1070 3340 1280 9060 4930 5540 3940 3260 5510 3520 830 4680 7510 8480 9750 5210 2550 8090 6500 9360 9200 8810 7450 2570 8450 5870 
147220
